&control
    calculation  = 'bands',
    restart_mode = 'from_scratch',
    prefix       = 'MoS2-2H',
    pseudo_dir   = 'C:/Users/user/Desktop/qe_test/PSEUDO_PP_USPP/all_lda_UPF_v1.5',
    outdir       = './outdir',
    wf_collect    = .true.
    verbosity     = 'high'
    forc_conv_thr = 0.01D-3
    etot_conv_thr = 1D-6
/
&system
    ibrav       = 4,
    celldm(1)   = 6.02882349219,
    celldm(3)   = 4.66380258256,
    nat         = 3,
    ntyp        = 2,
    ecutwfc     = 37,
    occupations = 'smearing',
    degauss     = 0.005
    ! vdw_corr    = 'dft-d'
    ! tot_charge  = 0.5
/
&electrons
    conv_thr         = 1.0e-10
    electron_maxstep = 100,
    mixing_mode      = 'plain'
    mixing_beta      = 0.1
    !diagonalization  ='cg'
/

ATOMIC_SPECIES
  Mo 95.94000 mo_lda_v1.uspp.F.UPF
  S 32.06600 s_lda_v1.4.uspp.F.UPF

ATOMIC_POSITIONS {crystal}
S        0.333333000   0.666667000   0.145537078
S        0.333333000   0.666667000   0.354462922
Mo       0.666667000   0.333333000   0.250000000

K_POINTS {crystal}
528
0.0000000000     0.0000000000     0.0000000000 0
    0.0113636364     0.0000000000     0.0000000000 0
    0.0227272727     0.0000000000     0.0000000000 0
    0.0340909091     0.0000000000     0.0000000000 0
    0.0454545455     0.0000000000     0.0000000000 0
    0.0568181818     0.0000000000     0.0000000000 0
    0.0681818182     0.0000000000     0.0000000000 0
    0.0795454545     0.0000000000     0.0000000000 0
    0.0909090909     0.0000000000     0.0000000000 0
    0.1022727273     0.0000000000     0.0000000000 0
    0.1136363636     0.0000000000     0.0000000000 0
    0.1250000000     0.0000000000     0.0000000000 0
    0.1363636364     0.0000000000     0.0000000000 0
    0.1477272727     0.0000000000     0.0000000000 0
    0.1590909091     0.0000000000     0.0000000000 0
    0.1704545455     0.0000000000     0.0000000000 0
    0.1818181818     0.0000000000     0.0000000000 0
    0.1931818182     0.0000000000     0.0000000000 0
    0.2045454545     0.0000000000     0.0000000000 0
    0.2159090909     0.0000000000     0.0000000000 0
    0.2272727273     0.0000000000     0.0000000000 0
    0.2386363636     0.0000000000     0.0000000000 0
    0.2500000000     0.0000000000     0.0000000000 0
    0.2613636364     0.0000000000     0.0000000000 0
    0.2727272727     0.0000000000     0.0000000000 0
    0.2840909091     0.0000000000     0.0000000000 0
    0.2954545455     0.0000000000     0.0000000000 0
    0.3068181818     0.0000000000     0.0000000000 0
    0.3181818182     0.0000000000     0.0000000000 0
    0.3295454545     0.0000000000     0.0000000000 0
    0.3409090909     0.0000000000     0.0000000000 0
    0.3522727273     0.0000000000     0.0000000000 0
    0.3636363636     0.0000000000     0.0000000000 0
    0.3750000000     0.0000000000     0.0000000000 0
    0.3863636364     0.0000000000     0.0000000000 0
    0.3977272727     0.0000000000     0.0000000000 0
    0.4090909091     0.0000000000     0.0000000000 0
    0.4204545455     0.0000000000     0.0000000000 0
    0.4318181818     0.0000000000     0.0000000000 0
    0.4431818182     0.0000000000     0.0000000000 0
    0.4545454545     0.0000000000     0.0000000000 0
    0.4659090909     0.0000000000     0.0000000000 0
    0.4772727273     0.0000000000     0.0000000000 0
    0.4886363636     0.0000000000     0.0000000000 0
    0.5000000000     0.0000000000     0.0000000000 0
    0.4933333333     0.0133333333     0.0000000000 0
    0.4866666667     0.0266666667     0.0000000000 0
    0.4800000000     0.0400000000     0.0000000000 0
    0.4733333333     0.0533333333     0.0000000000 0
    0.4666666667     0.0666666667     0.0000000000 0
    0.4600000000     0.0800000000     0.0000000000 0
    0.4533333333     0.0933333333     0.0000000000 0
    0.4466666667     0.1066666667     0.0000000000 0
    0.4400000000     0.1200000000     0.0000000000 0
    0.4333333333     0.1333333333     0.0000000000 0
    0.4266666667     0.1466666667     0.0000000000 0
    0.4200000000     0.1600000000     0.0000000000 0
    0.4133333333     0.1733333333     0.0000000000 0
    0.4066666667     0.1866666667     0.0000000000 0
    0.4000000000     0.2000000000     0.0000000000 0
    0.3933333333     0.2133333333     0.0000000000 0
    0.3866666667     0.2266666667     0.0000000000 0
    0.3800000000     0.2400000000     0.0000000000 0
    0.3733333333     0.2533333333     0.0000000000 0
    0.3666666667     0.2666666667     0.0000000000 0
    0.3600000000     0.2800000000     0.0000000000 0
    0.3533333333     0.2933333333     0.0000000000 0
    0.3466666667     0.3066666667     0.0000000000 0
    0.3400000000     0.3200000000     0.0000000000 0
    0.3333333333     0.3333333333     0.0000000000 0
    0.3267973856     0.3267973856     0.0000000000 0
    0.3202614379     0.3202614379     0.0000000000 0
    0.3137254902     0.3137254902     0.0000000000 0
    0.3071895425     0.3071895425     0.0000000000 0
    0.3006535948     0.3006535948     0.0000000000 0
    0.2941176471     0.2941176471     0.0000000000 0
    0.2875816993     0.2875816993     0.0000000000 0
    0.2810457516     0.2810457516     0.0000000000 0
    0.2745098039     0.2745098039     0.0000000000 0
    0.2679738562     0.2679738562     0.0000000000 0
    0.2614379085     0.2614379085     0.0000000000 0
    0.2549019608     0.2549019608     0.0000000000 0
    0.2483660131     0.2483660131     0.0000000000 0
    0.2418300654     0.2418300654     0.0000000000 0
    0.2352941176     0.2352941176     0.0000000000 0
    0.2287581699     0.2287581699     0.0000000000 0
    0.2222222222     0.2222222222     0.0000000000 0
    0.2156862745     0.2156862745     0.0000000000 0
    0.2091503268     0.2091503268     0.0000000000 0
    0.2026143791     0.2026143791     0.0000000000 0
    0.1960784314     0.1960784314     0.0000000000 0
    0.1895424837     0.1895424837     0.0000000000 0
    0.1830065359     0.1830065359     0.0000000000 0
    0.1764705882     0.1764705882     0.0000000000 0
    0.1699346405     0.1699346405     0.0000000000 0
    0.1633986928     0.1633986928     0.0000000000 0
    0.1568627451     0.1568627451     0.0000000000 0
    0.1503267974     0.1503267974     0.0000000000 0
    0.1437908497     0.1437908497     0.0000000000 0
    0.1372549020     0.1372549020     0.0000000000 0
    0.1307189542     0.1307189542     0.0000000000 0
    0.1241830065     0.1241830065     0.0000000000 0
    0.1176470588     0.1176470588     0.0000000000 0
    0.1111111111     0.1111111111     0.0000000000 0
    0.1045751634     0.1045751634     0.0000000000 0
    0.0980392157     0.0980392157     0.0000000000 0
    0.0915032680     0.0915032680     0.0000000000 0
    0.0849673203     0.0849673203     0.0000000000 0
    0.0784313725     0.0784313725     0.0000000000 0
    0.0718954248     0.0718954248     0.0000000000 0
    0.0653594771     0.0653594771     0.0000000000 0
    0.0588235294     0.0588235294     0.0000000000 0
    0.0522875817     0.0522875817     0.0000000000 0
    0.0457516340     0.0457516340     0.0000000000 0
    0.0392156863     0.0392156863     0.0000000000 0
    0.0326797386     0.0326797386     0.0000000000 0
    0.0261437908     0.0261437908     0.0000000000 0
    0.0196078431     0.0196078431     0.0000000000 0
    0.0130718954     0.0130718954     0.0000000000 0
    0.0065359477     0.0065359477     0.0000000000 0
    0.0000000000     0.0000000000     0.0000000000 0
    0.0000000000     0.0000000000     0.0714285714 0
    0.0000000000     0.0000000000     0.1428571429 0
    0.0000000000     0.0000000000     0.2142857143 0
    0.0000000000     0.0000000000     0.2857142857 0
    0.0000000000     0.0000000000     0.3571428571 0
    0.0000000000     0.0000000000     0.4285714286 0
    0.0000000000     0.0000000000     0.5000000000 0
    0.0113636364     0.0000000000     0.5000000000 0
    0.0227272727     0.0000000000     0.5000000000 0
    0.0340909091     0.0000000000     0.5000000000 0
    0.0454545455     0.0000000000     0.5000000000 0
    0.0568181818     0.0000000000     0.5000000000 0
    0.0681818182     0.0000000000     0.5000000000 0
    0.0795454545     0.0000000000     0.5000000000 0
    0.0909090909     0.0000000000     0.5000000000 0
    0.1022727273     0.0000000000     0.5000000000 0
    0.1136363636     0.0000000000     0.5000000000 0
    0.1250000000     0.0000000000     0.5000000000 0
    0.1363636364     0.0000000000     0.5000000000 0
    0.1477272727     0.0000000000     0.5000000000 0
    0.1590909091     0.0000000000     0.5000000000 0
    0.1704545455     0.0000000000     0.5000000000 0
    0.1818181818     0.0000000000     0.5000000000 0
    0.1931818182     0.0000000000     0.5000000000 0
    0.2045454545     0.0000000000     0.5000000000 0
    0.2159090909     0.0000000000     0.5000000000 0
    0.2272727273     0.0000000000     0.5000000000 0
    0.2386363636     0.0000000000     0.5000000000 0
    0.2500000000     0.0000000000     0.5000000000 0
    0.2613636364     0.0000000000     0.5000000000 0
    0.2727272727     0.0000000000     0.5000000000 0
    0.2840909091     0.0000000000     0.5000000000 0
    0.2954545455     0.0000000000     0.5000000000 0
    0.3068181818     0.0000000000     0.5000000000 0
    0.3181818182     0.0000000000     0.5000000000 0
    0.3295454545     0.0000000000     0.5000000000 0
    0.3409090909     0.0000000000     0.5000000000 0
    0.3522727273     0.0000000000     0.5000000000 0
    0.3636363636     0.0000000000     0.5000000000 0
    0.3750000000     0.0000000000     0.5000000000 0
    0.3863636364     0.0000000000     0.5000000000 0
    0.3977272727     0.0000000000     0.5000000000 0
    0.4090909091     0.0000000000     0.5000000000 0
    0.4204545455     0.0000000000     0.5000000000 0
    0.4318181818     0.0000000000     0.5000000000 0
    0.4431818182     0.0000000000     0.5000000000 0
    0.4545454545     0.0000000000     0.5000000000 0
    0.4659090909     0.0000000000     0.5000000000 0
    0.4772727273     0.0000000000     0.5000000000 0
    0.4886363636     0.0000000000     0.5000000000 0
    0.5000000000     0.0000000000     0.5000000000 0
    0.4933333333     0.0133333333     0.5000000000 0
    0.4866666667     0.0266666667     0.5000000000 0
    0.4800000000     0.0400000000     0.5000000000 0
    0.4733333333     0.0533333333     0.5000000000 0
    0.4666666667     0.0666666667     0.5000000000 0
    0.4600000000     0.0800000000     0.5000000000 0
    0.4533333333     0.0933333333     0.5000000000 0
    0.4466666667     0.1066666667     0.5000000000 0
    0.4400000000     0.1200000000     0.5000000000 0
    0.4333333333     0.1333333333     0.5000000000 0
    0.4266666667     0.1466666667     0.5000000000 0
    0.4200000000     0.1600000000     0.5000000000 0
    0.4133333333     0.1733333333     0.5000000000 0
    0.4066666667     0.1866666667     0.5000000000 0
    0.4000000000     0.2000000000     0.5000000000 0
    0.3933333333     0.2133333333     0.5000000000 0
    0.3866666667     0.2266666667     0.5000000000 0
    0.3800000000     0.2400000000     0.5000000000 0
    0.3733333333     0.2533333333     0.5000000000 0
    0.3666666667     0.2666666667     0.5000000000 0
    0.3600000000     0.2800000000     0.5000000000 0
    0.3533333333     0.2933333333     0.5000000000 0
    0.3466666667     0.3066666667     0.5000000000 0
    0.3400000000     0.3200000000     0.5000000000 0
    0.3333333333     0.3333333333     0.5000000000 0
    0.3267973856     0.3267973856     0.5000000000 0
    0.3202614379     0.3202614379     0.5000000000 0
    0.3137254902     0.3137254902     0.5000000000 0
    0.3071895425     0.3071895425     0.5000000000 0
    0.3006535948     0.3006535948     0.5000000000 0
    0.2941176471     0.2941176471     0.5000000000 0
    0.2875816993     0.2875816993     0.5000000000 0
    0.2810457516     0.2810457516     0.5000000000 0
    0.2745098039     0.2745098039     0.5000000000 0
    0.2679738562     0.2679738562     0.5000000000 0
    0.2614379085     0.2614379085     0.5000000000 0
    0.2549019608     0.2549019608     0.5000000000 0
    0.2483660131     0.2483660131     0.5000000000 0
    0.2418300654     0.2418300654     0.5000000000 0
    0.2352941176     0.2352941176     0.5000000000 0
    0.2287581699     0.2287581699     0.5000000000 0
    0.2222222222     0.2222222222     0.5000000000 0
    0.2156862745     0.2156862745     0.5000000000 0
    0.2091503268     0.2091503268     0.5000000000 0
    0.2026143791     0.2026143791     0.5000000000 0
    0.1960784314     0.1960784314     0.5000000000 0
    0.1895424837     0.1895424837     0.5000000000 0
    0.1830065359     0.1830065359     0.5000000000 0
    0.1764705882     0.1764705882     0.5000000000 0
    0.1699346405     0.1699346405     0.5000000000 0
    0.1633986928     0.1633986928     0.5000000000 0
    0.1568627451     0.1568627451     0.5000000000 0
    0.1503267974     0.1503267974     0.5000000000 0
    0.1437908497     0.1437908497     0.5000000000 0
    0.1372549020     0.1372549020     0.5000000000 0
    0.1307189542     0.1307189542     0.5000000000 0
    0.1241830065     0.1241830065     0.5000000000 0
    0.1176470588     0.1176470588     0.5000000000 0
    0.1111111111     0.1111111111     0.5000000000 0
    0.1045751634     0.1045751634     0.5000000000 0
    0.0980392157     0.0980392157     0.5000000000 0
    0.0915032680     0.0915032680     0.5000000000 0
    0.0849673203     0.0849673203     0.5000000000 0
    0.0784313725     0.0784313725     0.5000000000 0
    0.0718954248     0.0718954248     0.5000000000 0
    0.0653594771     0.0653594771     0.5000000000 0
    0.0588235294     0.0588235294     0.5000000000 0
    0.0522875817     0.0522875817     0.5000000000 0
    0.0457516340     0.0457516340     0.5000000000 0
    0.0392156863     0.0392156863     0.5000000000 0
    0.0326797386     0.0326797386     0.5000000000 0
    0.0261437908     0.0261437908     0.5000000000 0
    0.0196078431     0.0196078431     0.5000000000 0
    0.0130718954     0.0130718954     0.5000000000 0
    0.0065359477     0.0065359477     0.5000000000 0
    0.0000000000     0.0000000000     0.5000000000 0
    0.5000000000     0.0000000000     0.5000000000 0
    0.5000000000     0.0000000000     0.4285714286 0
    0.5000000000     0.0000000000     0.3571428571 0
    0.5000000000     0.0000000000     0.2857142857 0
    0.5000000000     0.0000000000     0.2142857143 0
    0.5000000000     0.0000000000     0.1428571429 0
    0.5000000000     0.0000000000     0.0714285714 0
    0.5000000000     0.0000000000     0.0000000000 0
    0.3333333333     0.3333333333     0.5000000000 0
    0.3333333333     0.3333333333     0.4285714286 0
    0.3333333333     0.3333333333     0.3571428571 0
    0.3333333333     0.3333333333     0.2857142857 0
    0.3333333333     0.3333333333     0.2142857143 0
    0.3333333333     0.3333333333     0.1428571429 0
    0.3333333333     0.3333333333     0.0714285714 0
    0.3333333333     0.3333333333     0.0000000000 0
    0.0000000000     0.0000000000     0.0000000000 0
   -0.0113636364     0.0000000000     0.0000000000 0
   -0.0227272727     0.0000000000     0.0000000000 0
   -0.0340909091     0.0000000000     0.0000000000 0
   -0.0454545455     0.0000000000     0.0000000000 0
   -0.0568181818     0.0000000000     0.0000000000 0
   -0.0681818182     0.0000000000     0.0000000000 0
   -0.0795454545     0.0000000000     0.0000000000 0
   -0.0909090909     0.0000000000     0.0000000000 0
   -0.1022727273     0.0000000000     0.0000000000 0
   -0.1136363636     0.0000000000     0.0000000000 0
   -0.1250000000     0.0000000000     0.0000000000 0
   -0.1363636364     0.0000000000     0.0000000000 0
   -0.1477272727     0.0000000000     0.0000000000 0
   -0.1590909091     0.0000000000     0.0000000000 0
   -0.1704545455     0.0000000000     0.0000000000 0
   -0.1818181818     0.0000000000     0.0000000000 0
   -0.1931818182     0.0000000000     0.0000000000 0
   -0.2045454545     0.0000000000     0.0000000000 0
   -0.2159090909     0.0000000000     0.0000000000 0
   -0.2272727273     0.0000000000     0.0000000000 0
   -0.2386363636     0.0000000000     0.0000000000 0
   -0.2500000000     0.0000000000     0.0000000000 0
   -0.2613636364     0.0000000000     0.0000000000 0
   -0.2727272727     0.0000000000     0.0000000000 0
   -0.2840909091     0.0000000000     0.0000000000 0
   -0.2954545455     0.0000000000     0.0000000000 0
   -0.3068181818     0.0000000000     0.0000000000 0
   -0.3181818182     0.0000000000     0.0000000000 0
   -0.3295454545     0.0000000000     0.0000000000 0
   -0.3409090909     0.0000000000     0.0000000000 0
   -0.3522727273     0.0000000000     0.0000000000 0
   -0.3636363636     0.0000000000     0.0000000000 0
   -0.3750000000     0.0000000000     0.0000000000 0
   -0.3863636364     0.0000000000     0.0000000000 0
   -0.3977272727     0.0000000000     0.0000000000 0
   -0.4090909091     0.0000000000     0.0000000000 0
   -0.4204545455     0.0000000000     0.0000000000 0
   -0.4318181818     0.0000000000     0.0000000000 0
   -0.4431818182     0.0000000000     0.0000000000 0
   -0.4545454545     0.0000000000     0.0000000000 0
   -0.4659090909     0.0000000000     0.0000000000 0
   -0.4772727273     0.0000000000     0.0000000000 0
   -0.4886363636     0.0000000000     0.0000000000 0
   -0.5000000000     0.0000000000     0.0000000000 0
   -0.4933333333    -0.0133333333     0.0000000000 0
   -0.4866666667    -0.0266666667     0.0000000000 0
   -0.4800000000    -0.0400000000     0.0000000000 0
   -0.4733333333    -0.0533333333     0.0000000000 0
   -0.4666666667    -0.0666666667     0.0000000000 0
   -0.4600000000    -0.0800000000     0.0000000000 0
   -0.4533333333    -0.0933333333     0.0000000000 0
   -0.4466666667    -0.1066666667     0.0000000000 0
   -0.4400000000    -0.1200000000     0.0000000000 0
   -0.4333333333    -0.1333333333     0.0000000000 0
   -0.4266666667    -0.1466666667     0.0000000000 0
   -0.4200000000    -0.1600000000     0.0000000000 0
   -0.4133333333    -0.1733333333     0.0000000000 0
   -0.4066666667    -0.1866666667     0.0000000000 0
   -0.4000000000    -0.2000000000     0.0000000000 0
   -0.3933333333    -0.2133333333     0.0000000000 0
   -0.3866666667    -0.2266666667     0.0000000000 0
   -0.3800000000    -0.2400000000     0.0000000000 0
   -0.3733333333    -0.2533333333     0.0000000000 0
   -0.3666666667    -0.2666666667     0.0000000000 0
   -0.3600000000    -0.2800000000     0.0000000000 0
   -0.3533333333    -0.2933333333     0.0000000000 0
   -0.3466666667    -0.3066666667     0.0000000000 0
   -0.3400000000    -0.3200000000     0.0000000000 0
   -0.3333333333    -0.3333333333     0.0000000000 0
   -0.3267973856    -0.3267973856     0.0000000000 0
   -0.3202614379    -0.3202614379     0.0000000000 0
   -0.3137254902    -0.3137254902     0.0000000000 0
   -0.3071895425    -0.3071895425     0.0000000000 0
   -0.3006535948    -0.3006535948     0.0000000000 0
   -0.2941176471    -0.2941176471     0.0000000000 0
   -0.2875816993    -0.2875816993     0.0000000000 0
   -0.2810457516    -0.2810457516     0.0000000000 0
   -0.2745098039    -0.2745098039     0.0000000000 0
   -0.2679738562    -0.2679738562     0.0000000000 0
   -0.2614379085    -0.2614379085     0.0000000000 0
   -0.2549019608    -0.2549019608     0.0000000000 0
   -0.2483660131    -0.2483660131     0.0000000000 0
   -0.2418300654    -0.2418300654     0.0000000000 0
   -0.2352941176    -0.2352941176     0.0000000000 0
   -0.2287581699    -0.2287581699     0.0000000000 0
   -0.2222222222    -0.2222222222     0.0000000000 0
   -0.2156862745    -0.2156862745     0.0000000000 0
   -0.2091503268    -0.2091503268     0.0000000000 0
   -0.2026143791    -0.2026143791     0.0000000000 0
   -0.1960784314    -0.1960784314     0.0000000000 0
   -0.1895424837    -0.1895424837     0.0000000000 0
   -0.1830065359    -0.1830065359     0.0000000000 0
   -0.1764705882    -0.1764705882     0.0000000000 0
   -0.1699346405    -0.1699346405     0.0000000000 0
   -0.1633986928    -0.1633986928     0.0000000000 0
   -0.1568627451    -0.1568627451     0.0000000000 0
   -0.1503267974    -0.1503267974     0.0000000000 0
   -0.1437908497    -0.1437908497     0.0000000000 0
   -0.1372549020    -0.1372549020     0.0000000000 0
   -0.1307189542    -0.1307189542     0.0000000000 0
   -0.1241830065    -0.1241830065     0.0000000000 0
   -0.1176470588    -0.1176470588     0.0000000000 0
   -0.1111111111    -0.1111111111     0.0000000000 0
   -0.1045751634    -0.1045751634     0.0000000000 0
   -0.0980392157    -0.0980392157     0.0000000000 0
   -0.0915032680    -0.0915032680     0.0000000000 0
   -0.0849673203    -0.0849673203     0.0000000000 0
   -0.0784313725    -0.0784313725     0.0000000000 0
   -0.0718954248    -0.0718954248     0.0000000000 0
   -0.0653594771    -0.0653594771     0.0000000000 0
   -0.0588235294    -0.0588235294     0.0000000000 0
   -0.0522875817    -0.0522875817     0.0000000000 0
   -0.0457516340    -0.0457516340     0.0000000000 0
   -0.0392156863    -0.0392156863     0.0000000000 0
   -0.0326797386    -0.0326797386     0.0000000000 0
   -0.0261437908    -0.0261437908     0.0000000000 0
   -0.0196078431    -0.0196078431     0.0000000000 0
   -0.0130718954    -0.0130718954     0.0000000000 0
   -0.0065359477    -0.0065359477     0.0000000000 0
    0.0000000000     0.0000000000     0.0000000000 0
    0.0000000000     0.0000000000    -0.0714285714 0
    0.0000000000     0.0000000000    -0.1428571429 0
    0.0000000000     0.0000000000    -0.2142857143 0
    0.0000000000     0.0000000000    -0.2857142857 0
    0.0000000000     0.0000000000    -0.3571428571 0
    0.0000000000     0.0000000000    -0.4285714286 0
    0.0000000000     0.0000000000    -0.5000000000 0
   -0.0113636364     0.0000000000    -0.5000000000 0
   -0.0227272727     0.0000000000    -0.5000000000 0
   -0.0340909091     0.0000000000    -0.5000000000 0
   -0.0454545455     0.0000000000    -0.5000000000 0
   -0.0568181818     0.0000000000    -0.5000000000 0
   -0.0681818182     0.0000000000    -0.5000000000 0
   -0.0795454545     0.0000000000    -0.5000000000 0
   -0.0909090909     0.0000000000    -0.5000000000 0
   -0.1022727273     0.0000000000    -0.5000000000 0
   -0.1136363636     0.0000000000    -0.5000000000 0
   -0.1250000000     0.0000000000    -0.5000000000 0
   -0.1363636364     0.0000000000    -0.5000000000 0
   -0.1477272727     0.0000000000    -0.5000000000 0
   -0.1590909091     0.0000000000    -0.5000000000 0
   -0.1704545455     0.0000000000    -0.5000000000 0
   -0.1818181818     0.0000000000    -0.5000000000 0
   -0.1931818182     0.0000000000    -0.5000000000 0
   -0.2045454545     0.0000000000    -0.5000000000 0
   -0.2159090909     0.0000000000    -0.5000000000 0
   -0.2272727273     0.0000000000    -0.5000000000 0
   -0.2386363636     0.0000000000    -0.5000000000 0
   -0.2500000000     0.0000000000    -0.5000000000 0
   -0.2613636364     0.0000000000    -0.5000000000 0
   -0.2727272727     0.0000000000    -0.5000000000 0
   -0.2840909091     0.0000000000    -0.5000000000 0
   -0.2954545455     0.0000000000    -0.5000000000 0
   -0.3068181818     0.0000000000    -0.5000000000 0
   -0.3181818182     0.0000000000    -0.5000000000 0
   -0.3295454545     0.0000000000    -0.5000000000 0
   -0.3409090909     0.0000000000    -0.5000000000 0
   -0.3522727273     0.0000000000    -0.5000000000 0
   -0.3636363636     0.0000000000    -0.5000000000 0
   -0.3750000000     0.0000000000    -0.5000000000 0
   -0.3863636364     0.0000000000    -0.5000000000 0
   -0.3977272727     0.0000000000    -0.5000000000 0
   -0.4090909091     0.0000000000    -0.5000000000 0
   -0.4204545455     0.0000000000    -0.5000000000 0
   -0.4318181818     0.0000000000    -0.5000000000 0
   -0.4431818182     0.0000000000    -0.5000000000 0
   -0.4545454545     0.0000000000    -0.5000000000 0
   -0.4659090909     0.0000000000    -0.5000000000 0
   -0.4772727273     0.0000000000    -0.5000000000 0
   -0.4886363636     0.0000000000    -0.5000000000 0
   -0.5000000000     0.0000000000    -0.5000000000 0
   -0.4933333333    -0.0133333333    -0.5000000000 0
   -0.4866666667    -0.0266666667    -0.5000000000 0
   -0.4800000000    -0.0400000000    -0.5000000000 0
   -0.4733333333    -0.0533333333    -0.5000000000 0
   -0.4666666667    -0.0666666667    -0.5000000000 0
   -0.4600000000    -0.0800000000    -0.5000000000 0
   -0.4533333333    -0.0933333333    -0.5000000000 0
   -0.4466666667    -0.1066666667    -0.5000000000 0
   -0.4400000000    -0.1200000000    -0.5000000000 0
   -0.4333333333    -0.1333333333    -0.5000000000 0
   -0.4266666667    -0.1466666667    -0.5000000000 0
   -0.4200000000    -0.1600000000    -0.5000000000 0
   -0.4133333333    -0.1733333333    -0.5000000000 0
   -0.4066666667    -0.1866666667    -0.5000000000 0
   -0.4000000000    -0.2000000000    -0.5000000000 0
   -0.3933333333    -0.2133333333    -0.5000000000 0
   -0.3866666667    -0.2266666667    -0.5000000000 0
   -0.3800000000    -0.2400000000    -0.5000000000 0
   -0.3733333333    -0.2533333333    -0.5000000000 0
   -0.3666666667    -0.2666666667    -0.5000000000 0
   -0.3600000000    -0.2800000000    -0.5000000000 0
   -0.3533333333    -0.2933333333    -0.5000000000 0
   -0.3466666667    -0.3066666667    -0.5000000000 0
   -0.3400000000    -0.3200000000    -0.5000000000 0
   -0.3333333333    -0.3333333333    -0.5000000000 0
   -0.3267973856    -0.3267973856    -0.5000000000 0
   -0.3202614379    -0.3202614379    -0.5000000000 0
   -0.3137254902    -0.3137254902    -0.5000000000 0
   -0.3071895425    -0.3071895425    -0.5000000000 0
   -0.3006535948    -0.3006535948    -0.5000000000 0
   -0.2941176471    -0.2941176471    -0.5000000000 0
   -0.2875816993    -0.2875816993    -0.5000000000 0
   -0.2810457516    -0.2810457516    -0.5000000000 0
   -0.2745098039    -0.2745098039    -0.5000000000 0
   -0.2679738562    -0.2679738562    -0.5000000000 0
   -0.2614379085    -0.2614379085    -0.5000000000 0
   -0.2549019608    -0.2549019608    -0.5000000000 0
   -0.2483660131    -0.2483660131    -0.5000000000 0
   -0.2418300654    -0.2418300654    -0.5000000000 0
   -0.2352941176    -0.2352941176    -0.5000000000 0
   -0.2287581699    -0.2287581699    -0.5000000000 0
   -0.2222222222    -0.2222222222    -0.5000000000 0
   -0.2156862745    -0.2156862745    -0.5000000000 0
   -0.2091503268    -0.2091503268    -0.5000000000 0
   -0.2026143791    -0.2026143791    -0.5000000000 0
   -0.1960784314    -0.1960784314    -0.5000000000 0
   -0.1895424837    -0.1895424837    -0.5000000000 0
   -0.1830065359    -0.1830065359    -0.5000000000 0
   -0.1764705882    -0.1764705882    -0.5000000000 0
   -0.1699346405    -0.1699346405    -0.5000000000 0
   -0.1633986928    -0.1633986928    -0.5000000000 0
   -0.1568627451    -0.1568627451    -0.5000000000 0
   -0.1503267974    -0.1503267974    -0.5000000000 0
   -0.1437908497    -0.1437908497    -0.5000000000 0
   -0.1372549020    -0.1372549020    -0.5000000000 0
   -0.1307189542    -0.1307189542    -0.5000000000 0
   -0.1241830065    -0.1241830065    -0.5000000000 0
   -0.1176470588    -0.1176470588    -0.5000000000 0
   -0.1111111111    -0.1111111111    -0.5000000000 0
   -0.1045751634    -0.1045751634    -0.5000000000 0
   -0.0980392157    -0.0980392157    -0.5000000000 0
   -0.0915032680    -0.0915032680    -0.5000000000 0
   -0.0849673203    -0.0849673203    -0.5000000000 0
   -0.0784313725    -0.0784313725    -0.5000000000 0
   -0.0718954248    -0.0718954248    -0.5000000000 0
   -0.0653594771    -0.0653594771    -0.5000000000 0
   -0.0588235294    -0.0588235294    -0.5000000000 0
   -0.0522875817    -0.0522875817    -0.5000000000 0
   -0.0457516340    -0.0457516340    -0.5000000000 0
   -0.0392156863    -0.0392156863    -0.5000000000 0
   -0.0326797386    -0.0326797386    -0.5000000000 0
   -0.0261437908    -0.0261437908    -0.5000000000 0
   -0.0196078431    -0.0196078431    -0.5000000000 0
   -0.0130718954    -0.0130718954    -0.5000000000 0
   -0.0065359477    -0.0065359477    -0.5000000000 0
    0.0000000000     0.0000000000    -0.5000000000 0
   -0.5000000000     0.0000000000    -0.5000000000 0
   -0.5000000000     0.0000000000    -0.4285714286 0
   -0.5000000000     0.0000000000    -0.3571428571 0
   -0.5000000000     0.0000000000    -0.2857142857 0
   -0.5000000000     0.0000000000    -0.2142857143 0
   -0.5000000000     0.0000000000    -0.1428571429 0
   -0.5000000000     0.0000000000    -0.0714285714 0
   -0.5000000000     0.0000000000     0.0000000000 0
   -0.3333333333    -0.3333333333    -0.5000000000 0
   -0.3333333333    -0.3333333333    -0.4285714286 0
   -0.3333333333    -0.3333333333    -0.3571428571 0
   -0.3333333333    -0.3333333333    -0.2857142857 0
   -0.3333333333    -0.3333333333    -0.2142857143 0
   -0.3333333333    -0.3333333333    -0.1428571429 0
   -0.3333333333    -0.3333333333    -0.0714285714 0
   -0.3333333333    -0.3333333333     0.0000000000 0