&BANDS
  prefix  = "MoS2-2H"
  outdir  = "./outdir"
  filband = "MoS2-2H.bands.dat"
/
