&dos
 outdir='./outdir'
 prefix='MoS2-2H'
 fildos='MoS2.dos.dat'
 Emin=-10, Emax=10, DeltaE=0.01
 /
